\* Source Pyomo model name=unknown *\

min 
x197:
+0.010922574627499999 x1
+0.011036351505000002 x10
+0.010995753714999999 x11
+0.0109931236675 x12
+0.010979049229999999 x13
+0.010979049229999999 x14
+0.010979049229999999 x15
+0.010979049229999999 x16
+0.0108950067325 x17
+0.0108839636325 x18
+0.010891760027500001 x19
+0.01086513158 x2
+0.0108950067325 x20
+0.0097815783350000008 x21
+0.0097815783350000008 x22
+0.0097815783350000008 x23
+0.0097815783350000008 x24
+0.009188653137499999 x25
+0.009188653137499999 x26
+0.009188653137499999 x27
+0.009188653137499999 x28
+0.010922574627499999 x29
+0.01148159218 x3
+0.01086513158 x30
+0.01148159218 x31
+0.01100132515 x32
+0.01220759863 x33
+0.0114374160175 x34
+0.0114312516975 x35
+0.011425027435 x36
+0.011147963737500001 x37
+0.011036351505000002 x38
+0.010995753714999999 x39
+0.01100132515 x4
+0.0109931236675 x40
+0.010979049229999999 x41
+0.010979049229999999 x42
+0.010979049229999999 x43
+0.010979049229999999 x44
+0.0108950067325 x45
+0.0108839636325 x46
+0.010891760027500001 x47
+0.0108950067325 x48
+0.0097815783350000008 x49
+0.01220759863 x5
+0.0097815783350000008 x50
+0.0097815783350000008 x51
+0.0097815783350000008 x52
+0.009188653137499999 x53
+0.009188653137499999 x54
+0.009188653137499999 x55
+0.009188653137499999 x56
+0.0114374160175 x6
+0.0114312516975 x7
+0.011425027435 x8
+0.011147963737500001 x9

s.t.

c_e_x198_:
-1 x1
+1 x113
-1 x29
+1 x85
= 0

c_e_x199_:
+1 x114
-1 x2
-1 x30
+1 x86
= 0

c_e_x200_:
+1 x115
-1 x3
-1 x31
+1 x87
= 0

c_e_x201_:
+1 x116
-1 x32
-1 x4
+1 x88
= 0

c_e_x202_:
+1 x117
-1 x33
-1 x5
+1 x89
= 0

c_e_x203_:
+1 x118
-1 x34
-1 x6
+1 x90
= 0

c_e_x204_:
+1 x119
-1 x35
-1 x7
+1 x91
= 0

c_e_x205_:
+1 x120
-1 x36
-1 x8
+1 x92
= 0

c_e_x206_:
+1 x121
-1 x37
-1 x9
+1 x93
= 0

c_e_x207_:
-1 x10
+1 x122
-1 x38
+1 x94
= 0

c_e_x208_:
-1 x11
+1 x123
-1 x39
+1 x95
= 0

c_e_x209_:
-1 x12
+1 x124
-1 x40
+1 x96
= 0

c_e_x210_:
+1 x125
-1 x13
-1 x41
+1 x97
= 0

c_e_x211_:
+1 x126
-1 x14
-1 x42
+1 x98
= 0

c_e_x212_:
+1 x127
-1 x15
-1 x43
+1 x99
= 0

c_e_x213_:
+1 x100
+1 x128
-1 x16
-1 x44
= 0

c_e_x214_:
+1 x101
+1 x129
-1 x17
-1 x45
= 0

c_e_x215_:
+1 x102
+1 x130
-1 x18
-1 x46
= 0

c_e_x216_:
+1 x103
+1 x131
-1 x19
-1 x47
= 0

c_e_x217_:
+1 x104
+1 x132
-1 x20
-1 x48
= 0

c_e_x218_:
+1 x105
+1 x133
-1 x21
-1 x49
= 0

c_e_x219_:
+1 x106
+1 x134
-1 x22
-1 x50
= 0

c_e_x220_:
+1 x107
+1 x135
-1 x23
-1 x51
= 0

c_e_x221_:
+1 x108
+1 x136
-1 x24
-1 x52
= 6

c_e_x222_:
+1 x109
+1 x137
-1 x25
-1 x53
= 11

c_e_x223_:
+1 x110
+1 x138
-1 x26
-1 x54
= 11

c_e_x224_:
+1 x111
+1 x139
-1 x27
-1 x55
= 11

c_e_x225_:
+1 x112
+1 x140
-1 x28
-1 x56
= 11

c_e_x226_:
+1 x1
= 0

c_u_x227_:
-22 x142
+1 x2
<= 0

c_u_x228_:
-22 x143
+1 x3
<= 0

c_u_x229_:
-22 x144
+1 x4
<= 0

c_u_x230_:
-22 x145
+1 x5
<= 0

c_u_x231_:
-22 x146
+1 x6
<= 0

c_u_x232_:
-22 x147
+1 x7
<= 0

c_u_x233_:
-22 x148
+1 x8
<= 0

c_u_x234_:
-22 x149
+1 x9
<= 0

c_u_x235_:
+1 x10
-22 x150
<= 0

c_u_x236_:
+1 x11
-22 x151
<= 0

c_u_x237_:
+1 x12
-22 x152
<= 0

c_u_x238_:
+1 x13
-22 x153
<= 0

c_u_x239_:
+1 x14
-22 x154
<= 0

c_u_x240_:
+1 x15
-22 x155
<= 0

c_u_x241_:
-22 x156
+1 x16
<= 0

c_u_x242_:
-22 x157
+1 x17
<= 0

c_u_x243_:
-22 x158
+1 x18
<= 0

c_u_x244_:
-22 x159
+1 x19
<= 0

c_u_x245_:
-22 x160
+1 x20
<= 0

c_u_x246_:
-22 x161
+1 x21
<= 0

c_u_x247_:
-22 x162
+1 x22
<= 0

c_u_x248_:
-22 x163
+1 x23
<= 0

c_u_x249_:
-22 x164
+1 x24
<= 0

c_u_x250_:
-22 x165
+1 x25
<= 0

c_u_x251_:
-22 x166
+1 x26
<= 0

c_u_x252_:
-22 x167
+1 x27
<= 0

c_u_x253_:
-22 x168
+1 x28
<= 0

c_e_x254_:
+1 x29
= 0

c_u_x255_:
-22 x170
-1 x30
<= 0

c_u_x256_:
-22 x171
-1 x31
<= 0

c_u_x257_:
-22 x172
-1 x32
<= 0

c_u_x258_:
-22 x173
-1 x33
<= 0

c_u_x259_:
-22 x174
-1 x34
<= 0

c_u_x260_:
-22 x175
-1 x35
<= 0

c_u_x261_:
-22 x176
-1 x36
<= 0

c_u_x262_:
-22 x177
-1 x37
<= 0

c_u_x263_:
-22 x178
-1 x38
<= 0

c_u_x264_:
-22 x179
-1 x39
<= 0

c_u_x265_:
-22 x180
-1 x40
<= 0

c_u_x266_:
-22 x181
-1 x41
<= 0

c_u_x267_:
-22 x182
-1 x42
<= 0

c_u_x268_:
-22 x183
-1 x43
<= 0

c_u_x269_:
-22 x184
-1 x44
<= 0

c_u_x270_:
-22 x185
-1 x45
<= 0

c_u_x271_:
-22 x186
-1 x46
<= 0

c_u_x272_:
-22 x187
-1 x47
<= 0

c_u_x273_:
-22 x188
-1 x48
<= 0

c_u_x274_:
-22 x189
-1 x49
<= 0

c_u_x275_:
-22 x190
-1 x50
<= 0

c_u_x276_:
-22 x191
-1 x51
<= 0

c_u_x277_:
-22 x192
-1 x52
<= 0

c_u_x278_:
-22 x193
-1 x53
<= 0

c_u_x279_:
-22 x194
-1 x54
<= 0

c_u_x280_:
-22 x195
-1 x55
<= 0

c_u_x281_:
-22 x196
-1 x56
<= 0

c_u_x282_:
+1 x1
<= 22

c_u_x283_:
+1 x2
<= 22

c_u_x284_:
+1 x3
<= 22

c_u_x285_:
+1 x4
<= 22

c_u_x286_:
+1 x5
<= 22

c_u_x287_:
+1 x6
<= 22

c_u_x288_:
+1 x7
<= 22

c_u_x289_:
+1 x8
<= 22

c_u_x290_:
+1 x9
<= 22

c_u_x291_:
+1 x10
<= 22

c_u_x292_:
+1 x11
<= 22

c_u_x293_:
+1 x12
<= 22

c_u_x294_:
+1 x13
<= 22

c_u_x295_:
+1 x14
<= 22

c_u_x296_:
+1 x15
<= 22

c_u_x297_:
+1 x16
<= 22

c_u_x298_:
+1 x17
<= 22

c_u_x299_:
+1 x18
<= 22

c_u_x300_:
+1 x19
<= 22

c_u_x301_:
+1 x20
<= 22

c_u_x302_:
+1 x21
<= 22

c_u_x303_:
+1 x22
<= 22

c_u_x304_:
+1 x23
<= 22

c_u_x305_:
+1 x24
<= 22

c_u_x306_:
+1 x25
<= 22

c_u_x307_:
+1 x26
<= 22

c_u_x308_:
+1 x27
<= 22

c_u_x309_:
+1 x28
<= 22

c_l_x310_:
+1 x29
>= -22

c_l_x311_:
+1 x30
>= -22

c_l_x312_:
+1 x31
>= -22

c_l_x313_:
+1 x32
>= -22

c_l_x314_:
+1 x33
>= -22

c_l_x315_:
+1 x34
>= -22

c_l_x316_:
+1 x35
>= -22

c_l_x317_:
+1 x36
>= -22

c_l_x318_:
+1 x37
>= -22

c_l_x319_:
+1 x38
>= -22

c_l_x320_:
+1 x39
>= -22

c_l_x321_:
+1 x40
>= -22

c_l_x322_:
+1 x41
>= -22

c_l_x323_:
+1 x42
>= -22

c_l_x324_:
+1 x43
>= -22

c_l_x325_:
+1 x44
>= -22

c_l_x326_:
+1 x45
>= -22

c_l_x327_:
+1 x46
>= -22

c_l_x328_:
+1 x47
>= -22

c_l_x329_:
+1 x48
>= -22

c_l_x330_:
+1 x49
>= -22

c_l_x331_:
+1 x50
>= -22

c_l_x332_:
+1 x51
>= -22

c_l_x333_:
+1 x52
>= -22

c_l_x334_:
+1 x53
>= -22

c_l_x335_:
+1 x54
>= -22

c_l_x336_:
+1 x55
>= -22

c_l_x337_:
+1 x56
>= -22

c_u_x338_:
+1 x141
+1 x169
<= 1

c_u_x339_:
+1 x142
+1 x170
<= 1

c_u_x340_:
+1 x143
+1 x171
<= 1

c_u_x341_:
+1 x144
+1 x172
<= 1

c_u_x342_:
+1 x145
+1 x173
<= 1

c_u_x343_:
+1 x146
+1 x174
<= 1

c_u_x344_:
+1 x147
+1 x175
<= 1

c_u_x345_:
+1 x148
+1 x176
<= 1

c_u_x346_:
+1 x149
+1 x177
<= 1

c_u_x347_:
+1 x150
+1 x178
<= 1

c_u_x348_:
+1 x151
+1 x179
<= 1

c_u_x349_:
+1 x152
+1 x180
<= 1

c_u_x350_:
+1 x153
+1 x181
<= 1

c_u_x351_:
+1 x154
+1 x182
<= 1

c_u_x352_:
+1 x155
+1 x183
<= 1

c_u_x353_:
+1 x156
+1 x184
<= 1

c_u_x354_:
+1 x157
+1 x185
<= 1

c_u_x355_:
+1 x158
+1 x186
<= 1

c_u_x356_:
+1 x159
+1 x187
<= 1

c_u_x357_:
+1 x160
+1 x188
<= 1

c_u_x358_:
+1 x161
+1 x189
<= 1

c_u_x359_:
+1 x162
+1 x190
<= 1

c_u_x360_:
+1 x163
+1 x191
<= 1

c_u_x361_:
+1 x164
+1 x192
<= 1

c_u_x362_:
+1 x165
+1 x193
<= 1

c_u_x363_:
+1 x166
+1 x194
<= 1

c_u_x364_:
+1 x167
+1 x195
<= 1

c_u_x365_:
+1 x168
+1 x196
<= 1

c_e_x366_:
+1 x57
= 0

c_e_x367_:
-1.1111111111111112 x114
-1 x57
+1 x58
-0.90000000000000002 x86
= 0

c_e_x368_:
-1.1111111111111112 x115
-1 x58
+1 x59
-0.90000000000000002 x87
= 0

c_e_x369_:
-1.1111111111111112 x116
-1 x59
+1 x60
-0.90000000000000002 x88
= 0

c_e_x370_:
-1.1111111111111112 x117
-1 x60
+1 x61
-0.90000000000000002 x89
= 0

c_e_x371_:
-1.1111111111111112 x118
-1 x61
+1 x62
-0.90000000000000002 x90
= 0

c_e_x372_:
-1.1111111111111112 x119
-1 x62
+1 x63
-0.90000000000000002 x91
= 0

c_e_x373_:
-1.1111111111111112 x120
-1 x63
+1 x64
-0.90000000000000002 x92
= 0

c_e_x374_:
-1.1111111111111112 x121
-1 x64
+1 x65
-0.90000000000000002 x93
= 0

c_e_x375_:
-1.1111111111111112 x122
-1 x65
+1 x66
-0.90000000000000002 x94
= 0

c_e_x376_:
-1.1111111111111112 x123
-1 x66
+1 x67
-0.90000000000000002 x95
= 0

c_e_x377_:
-1.1111111111111112 x124
-1 x67
+1 x68
-0.90000000000000002 x96
= 0

c_e_x378_:
-1.1111111111111112 x125
-1 x68
+1 x69
-0.90000000000000002 x97
= 0

c_e_x379_:
-1.1111111111111112 x126
-1 x69
+1 x70
-0.90000000000000002 x98
= 0

c_e_x380_:
-1.1111111111111112 x127
-1 x70
+1 x71
-0.90000000000000002 x99
= 0

c_e_x381_:
-0.90000000000000002 x100
-1.1111111111111112 x128
-1 x71
+1 x72
= 0

c_e_x382_:
-0.90000000000000002 x101
-1.1111111111111112 x129
-1 x72
+1 x73
= 0

c_e_x383_:
-0.90000000000000002 x102
-1.1111111111111112 x130
-1 x73
+1 x74
= 0

c_e_x384_:
-0.90000000000000002 x103
-1.1111111111111112 x131
-1 x74
+1 x75
= 0

c_e_x385_:
-0.90000000000000002 x104
-1.1111111111111112 x132
-1 x75
+1 x76
= 0

c_e_x386_:
-0.90000000000000002 x105
-1.1111111111111112 x133
-1 x76
+1 x77
= 0

c_e_x387_:
-0.90000000000000002 x106
-1.1111111111111112 x134
-1 x77
+1 x78
= 0

c_e_x388_:
-0.90000000000000002 x107
-1.1111111111111112 x135
-1 x78
+1 x79
= 0

c_e_x389_:
-0.90000000000000002 x108
-1.1111111111111112 x136
-1 x79
+1 x80
= 0

c_e_x390_:
-0.90000000000000002 x109
-1.1111111111111112 x137
-1 x80
+1 x81
= 0

c_e_x391_:
-0.90000000000000002 x110
-1.1111111111111112 x138
-1 x81
+1 x82
= 0

c_e_x392_:
-0.90000000000000002 x111
-1.1111111111111112 x139
-1 x82
+1 x83
= 0

c_e_x393_:
-0.90000000000000002 x112
-1.1111111111111112 x140
-1 x83
+1 x84
= 0

c_l_x394_:
+1 x57
>= 0

c_l_x395_:
+1 x58
>= 0

c_l_x396_:
+1 x59
>= 0

c_l_x397_:
+1 x60
>= 0

c_l_x398_:
+1 x61
>= 0

c_l_x399_:
+1 x62
>= 0

c_l_x400_:
+1 x63
>= 0

c_l_x401_:
+1 x64
>= 0

c_l_x402_:
+1 x65
>= 0

c_l_x403_:
+1 x66
>= 0

c_l_x404_:
+1 x67
>= 0

c_l_x405_:
+1 x68
>= 0

c_l_x406_:
+1 x69
>= 0

c_l_x407_:
+1 x70
>= 0

c_l_x408_:
+1 x71
>= 0

c_l_x409_:
+1 x72
>= 0

c_l_x410_:
+1 x73
>= 0

c_l_x411_:
+1 x74
>= 0

c_l_x412_:
+1 x75
>= 0

c_l_x413_:
+1 x76
>= 0

c_l_x414_:
+1 x77
>= 0

c_l_x415_:
+1 x78
>= 0

c_l_x416_:
+1 x79
>= 0

c_l_x417_:
+1 x80
>= 0

c_l_x418_:
+1 x81
>= 0

c_l_x419_:
+1 x82
>= 0

c_l_x420_:
+1 x83
>= 0

c_l_x421_:
+1 x84
>= 45

c_e_ONE_VAR_CONSTANT: 
ONE_VAR_CONSTANT = 1.0

bounds
   0 <= x1 <= 22
   0 <= x2 <= 22
   0 <= x3 <= 22
   0 <= x4 <= 22
   0 <= x5 <= 22
   0 <= x6 <= 22
   0 <= x7 <= 22
   0 <= x8 <= 22
   0 <= x9 <= 22
   0 <= x10 <= 22
   0 <= x11 <= 22
   0 <= x12 <= 22
   0 <= x13 <= 22
   0 <= x14 <= 22
   0 <= x15 <= 22
   0 <= x16 <= 22
   0 <= x17 <= 22
   0 <= x18 <= 22
   0 <= x19 <= 22
   0 <= x20 <= 22
   0 <= x21 <= 22
   0 <= x22 <= 22
   0 <= x23 <= 22
   0 <= x24 <= 22
   0 <= x25 <= 22
   0 <= x26 <= 22
   0 <= x27 <= 22
   0 <= x28 <= 22
   -22 <= x29 <= 0
   -22 <= x30 <= 0
   -22 <= x31 <= 0
   -22 <= x32 <= 0
   -22 <= x33 <= 0
   -22 <= x34 <= 0
   -22 <= x35 <= 0
   -22 <= x36 <= 0
   -22 <= x37 <= 0
   -22 <= x38 <= 0
   -22 <= x39 <= 0
   -22 <= x40 <= 0
   -22 <= x41 <= 0
   -22 <= x42 <= 0
   -22 <= x43 <= 0
   -22 <= x44 <= 0
   -22 <= x45 <= 0
   -22 <= x46 <= 0
   -22 <= x47 <= 0
   -22 <= x48 <= 0
   -22 <= x49 <= 0
   -22 <= x50 <= 0
   -22 <= x51 <= 0
   -22 <= x52 <= 0
   -22 <= x53 <= 0
   -22 <= x54 <= 0
   -22 <= x55 <= 0
   -22 <= x56 <= 0
   0 <= x57 <= 50
   0 <= x58 <= 50
   0 <= x59 <= 50
   0 <= x60 <= 50
   0 <= x61 <= 50
   0 <= x62 <= 50
   0 <= x63 <= 50
   0 <= x64 <= 50
   0 <= x65 <= 50
   0 <= x66 <= 50
   0 <= x67 <= 50
   0 <= x68 <= 50
   0 <= x69 <= 50
   0 <= x70 <= 50
   0 <= x71 <= 50
   0 <= x72 <= 50
   0 <= x73 <= 50
   0 <= x74 <= 50
   0 <= x75 <= 50
   0 <= x76 <= 50
   0 <= x77 <= 50
   0 <= x78 <= 50
   0 <= x79 <= 50
   0 <= x80 <= 50
   0 <= x81 <= 50
   0 <= x82 <= 50
   0 <= x83 <= 50
   0 <= x84 <= 50
   0 <= x85 <= 11
   0 <= x86 <= 11
   0 <= x87 <= 11
   0 <= x88 <= 11
   0 <= x89 <= 11
   0 <= x90 <= 11
   0 <= x91 <= 11
   0 <= x92 <= 11
   0 <= x93 <= 11
   0 <= x94 <= 11
   0 <= x95 <= 11
   0 <= x96 <= 11
   0 <= x97 <= 11
   0 <= x98 <= 11
   0 <= x99 <= 11
   0 <= x100 <= 11
   0 <= x101 <= 11
   0 <= x102 <= 11
   0 <= x103 <= 11
   0 <= x104 <= 11
   0 <= x105 <= 11
   0 <= x106 <= 11
   0 <= x107 <= 11
   0 <= x108 <= 11
   0 <= x109 <= 11
   0 <= x110 <= 11
   0 <= x111 <= 11
   0 <= x112 <= 11
   -11 <= x113 <= 0
   -11 <= x114 <= 0
   -11 <= x115 <= 0
   -11 <= x116 <= 0
   -11 <= x117 <= 0
   -11 <= x118 <= 0
   -11 <= x119 <= 0
   -11 <= x120 <= 0
   -11 <= x121 <= 0
   -11 <= x122 <= 0
   -11 <= x123 <= 0
   -11 <= x124 <= 0
   -11 <= x125 <= 0
   -11 <= x126 <= 0
   -11 <= x127 <= 0
   -11 <= x128 <= 0
   -11 <= x129 <= 0
   -11 <= x130 <= 0
   -11 <= x131 <= 0
   -11 <= x132 <= 0
   -11 <= x133 <= 0
   -11 <= x134 <= 0
   -11 <= x135 <= 0
   -11 <= x136 <= 0
   -11 <= x137 <= 0
   -11 <= x138 <= 0
   -11 <= x139 <= 0
   -11 <= x140 <= 0
   0 <= x141 <= 1
   0 <= x142 <= 1
   0 <= x143 <= 1
   0 <= x144 <= 1
   0 <= x145 <= 1
   0 <= x146 <= 1
   0 <= x147 <= 1
   0 <= x148 <= 1
   0 <= x149 <= 1
   0 <= x150 <= 1
   0 <= x151 <= 1
   0 <= x152 <= 1
   0 <= x153 <= 1
   0 <= x154 <= 1
   0 <= x155 <= 1
   0 <= x156 <= 1
   0 <= x157 <= 1
   0 <= x158 <= 1
   0 <= x159 <= 1
   0 <= x160 <= 1
   0 <= x161 <= 1
   0 <= x162 <= 1
   0 <= x163 <= 1
   0 <= x164 <= 1
   0 <= x165 <= 1
   0 <= x166 <= 1
   0 <= x167 <= 1
   0 <= x168 <= 1
   0 <= x169 <= 1
   0 <= x170 <= 1
   0 <= x171 <= 1
   0 <= x172 <= 1
   0 <= x173 <= 1
   0 <= x174 <= 1
   0 <= x175 <= 1
   0 <= x176 <= 1
   0 <= x177 <= 1
   0 <= x178 <= 1
   0 <= x179 <= 1
   0 <= x180 <= 1
   0 <= x181 <= 1
   0 <= x182 <= 1
   0 <= x183 <= 1
   0 <= x184 <= 1
   0 <= x185 <= 1
   0 <= x186 <= 1
   0 <= x187 <= 1
   0 <= x188 <= 1
   0 <= x189 <= 1
   0 <= x190 <= 1
   0 <= x191 <= 1
   0 <= x192 <= 1
   0 <= x193 <= 1
   0 <= x194 <= 1
   0 <= x195 <= 1
   0 <= x196 <= 1
binary
  x141
  x142
  x143
  x144
  x145
  x146
  x147
  x148
  x149
  x150
  x151
  x152
  x153
  x154
  x155
  x156
  x157
  x158
  x159
  x160
  x161
  x162
  x163
  x164
  x165
  x166
  x167
  x168
  x169
  x170
  x171
  x172
  x173
  x174
  x175
  x176
  x177
  x178
  x179
  x180
  x181
  x182
  x183
  x184
  x185
  x186
  x187
  x188
  x189
  x190
  x191
  x192
  x193
  x194
  x195
  x196
end
